Problem:    tsp
Rows:       196
Columns:    312 (156 integer, 156 binary)
Non-zeros:  1092
Status:     INTEGER OPTIMAL
Objective:  total = 383 (MINimum)

   No.   Row name        Activity     Lower bound   Upper bound
------ ------------    ------------- ------------- -------------
     1 total                     383                             
     2 leave[1]                    1             1             = 
     3 leave[2]                    1             1             = 
     4 leave[3]                    1             1             = 
     5 leave[4]                    1             1             = 
     6 leave[5]                    1             1             = 
     7 leave[6]                    1             1             = 
     8 leave[7]                    1             1             = 
     9 leave[8]                    1             1             = 
    10 leave[9]                    1             1             = 
    11 leave[10]                   1             1             = 
    12 leave[11]                   1             1             = 
    13 leave[12]                   1             1             = 
    14 leave[13]                   1             1             = 
    15 enter[1]                    1             1             = 
    16 enter[2]                    1             1             = 
    17 enter[3]                    1             1             = 
    18 enter[4]                    1             1             = 
    19 enter[5]                    1             1             = 
    20 enter[6]                    1             1             = 
    21 enter[7]                    1             1             = 
    22 enter[8]                    1             1             = 
    23 enter[9]                    1             1             = 
    24 enter[10]                   1             1             = 
    25 enter[11]                   1             1             = 
    26 enter[12]                   1             1             = 
    27 enter[13]                   1             1             = 
    28 cap[1,2]                    0                          -0 
    29 cap[1,3]                    0                          -0 
    30 cap[1,4]                    0                          -0 
    31 cap[1,5]                    0                          -0 
    32 cap[1,6]                    0                          -0 
    33 cap[1,7]                    0                          -0 
    34 cap[1,8]                    0                          -0 
    35 cap[1,9]                    0                          -0 
    36 cap[1,10]                   0                          -0 
    37 cap[1,11]                   0                          -0 
    38 cap[1,12]                   0                          -0 
    39 cap[1,13]                   0                          -0 
    40 cap[2,1]                    0                          -0 
    41 cap[2,3]                    0                          -0 
    42 cap[2,4]                    0                          -0 
    43 cap[2,5]                    0                          -0 
    44 cap[2,6]                    0                          -0 
    45 cap[2,7]                    0                          -0 
    46 cap[2,8]                    0                          -0 
    47 cap[2,9]                   -5                          -0 
    48 cap[2,10]                   0                          -0 
    49 cap[2,11]                   0                          -0 
    50 cap[2,12]                   0                          -0 
    51 cap[2,13]                   0                          -0 
    52 cap[3,1]                    0                          -0 
    53 cap[3,2]                    0                          -0 
    54 cap[3,4]                   -8                          -0 
    55 cap[3,5]                    0                          -0 
    56 cap[3,6]                    0                          -0 
    57 cap[3,7]                    0                          -0 
    58 cap[3,8]                    0                          -0 
    59 cap[3,9]                    0                          -0 
    60 cap[3,10]                   0                          -0 
    61 cap[3,11]                   0                          -0 
    62 cap[3,12]                   0                          -0 
    63 cap[3,13]                   0                          -0 
    64 cap[4,1]                    0                          -0 
    65 cap[4,2]                    0                          -0 
    66 cap[4,3]                    0                          -0 
    67 cap[4,5]                    0                          -0 
    68 cap[4,6]                    0                          -0 
    69 cap[4,7]                   -9                          -0 
    70 cap[4,8]                    0                          -0 
    71 cap[4,9]                    0                          -0 
    72 cap[4,10]                   0                          -0 
    73 cap[4,11]                   0                          -0 
    74 cap[4,12]                   0                          -0 
    75 cap[4,13]                   0                          -0 
    76 cap[5,1]                    0                          -0 
    77 cap[5,2]                    0                          -0 
    78 cap[5,3]                    0                          -0 
    79 cap[5,4]                    0                          -0 
    80 cap[5,6]                   -1                          -0 
    81 cap[5,7]                    0                          -0 
    82 cap[5,8]                    0                          -0 
    83 cap[5,9]                    0                          -0 
    84 cap[5,10]                   0                          -0 
    85 cap[5,11]                   0                          -0 
    86 cap[5,12]                   0                          -0 
    87 cap[5,13]                   0                          -0 
    88 cap[6,1]                    0                          -0 
    89 cap[6,2]                    0                          -0 
    90 cap[6,3]                    0                          -0 
    91 cap[6,4]                    0                          -0 
    92 cap[6,5]                    0                          -0 
    93 cap[6,7]                    0                          -0 
    94 cap[6,8]                    0                          -0 
    95 cap[6,9]                    0                          -0 
    96 cap[6,10]                   0                          -0 
    97 cap[6,11]                  -2                          -0 
    98 cap[6,12]                   0                          -0 
    99 cap[6,13]                   0                          -0 
   100 cap[7,1]                    0                          -0 
   101 cap[7,2]                    0                          -0 
   102 cap[7,3]                    0                          -0 
   103 cap[7,4]                    0                          -0 
   104 cap[7,5]                    0                          -0 
   105 cap[7,6]                    0                          -0 
   106 cap[7,8]                    0                          -0 
   107 cap[7,9]                    0                          -0 
   108 cap[7,10]                 -10                          -0 
   109 cap[7,11]                   0                          -0 
   110 cap[7,12]                   0                          -0 
   111 cap[7,13]                   0                          -0 
   112 cap[8,1]                    0                          -0 
   113 cap[8,2]                    0                          -0 
   114 cap[8,3]                   -7                          -0 
   115 cap[8,4]                    0                          -0 
   116 cap[8,5]                    0                          -0 
   117 cap[8,6]                    0                          -0 
   118 cap[8,7]                    0                          -0 
   119 cap[8,9]                    0                          -0 
   120 cap[8,10]                   0                          -0 
   121 cap[8,11]                   0                          -0 
   122 cap[8,12]                   0                          -0 
   123 cap[8,13]                   0                          -0 
   124 cap[9,1]                    0                          -0 
   125 cap[9,2]                    0                          -0 
   126 cap[9,3]                    0                          -0 
   127 cap[9,4]                    0                          -0 
   128 cap[9,5]                    0                          -0 
   129 cap[9,6]                    0                          -0 
   130 cap[9,7]                    0                          -0 
   131 cap[9,8]                   -6                          -0 
   132 cap[9,10]                   0                          -0 
   133 cap[9,11]                   0                          -0 
   134 cap[9,12]                   0                          -0 
   135 cap[9,13]                   0                          -0 
   136 cap[10,1]                   0                          -0 
   137 cap[10,2]                   0                          -0 
   138 cap[10,3]                   0                          -0 
   139 cap[10,4]                   0                          -0 
   140 cap[10,5]                   0                          -0 
   141 cap[10,6]                   0                          -0 
   142 cap[10,7]                   0                          -0 
   143 cap[10,8]                   0                          -0 
   144 cap[10,9]                   0                          -0 
   145 cap[10,11]                  0                          -0 
   146 cap[10,12]                  0                          -0 
   147 cap[10,13]                -11                          -0 
   148 cap[11,1]                   0                          -0 
   149 cap[11,2]                   0                          -0 
   150 cap[11,3]                   0                          -0 
   151 cap[11,4]                   0                          -0 
   152 cap[11,5]                   0                          -0 
   153 cap[11,6]                   0                          -0 
   154 cap[11,7]                   0                          -0 
   155 cap[11,8]                   0                          -0 
   156 cap[11,9]                   0                          -0 
   157 cap[11,10]                  0                          -0 
   158 cap[11,12]                 -3                          -0 
   159 cap[11,13]                  0                          -0 
   160 cap[12,1]                   0                          -0 
   161 cap[12,2]                  -4                          -0 
   162 cap[12,3]                   0                          -0 
   163 cap[12,4]                   0                          -0 
   164 cap[12,5]                   0                          -0 
   165 cap[12,6]                   0                          -0 
   166 cap[12,7]                   0                          -0 
   167 cap[12,8]                   0                          -0 
   168 cap[12,9]                   0                          -0 
   169 cap[12,10]                  0                          -0 
   170 cap[12,11]                  0                          -0 
   171 cap[12,13]                  0                          -0 
   172 cap[13,1]                 -12                          -0 
   173 cap[13,2]                   0                          -0 
   174 cap[13,3]                   0                          -0 
   175 cap[13,4]                   0                          -0 
   176 cap[13,5]                   0                          -0 
   177 cap[13,6]                   0                          -0 
   178 cap[13,7]                   0                          -0 
   179 cap[13,8]                   0                          -0 
   180 cap[13,9]                   0                          -0 
   181 cap[13,10]                  0                          -0 
   182 cap[13,11]                  0                          -0 
   183 cap[13,12]                  0                          -0 
   184 node[1]                   -12           -12             = 
   185 node[2]                     1             1             = 
   186 node[3]                     1             1             = 
   187 node[4]                     1             1             = 
   188 node[5]                     1             1             = 
   189 node[6]                     1             1             = 
   190 node[7]                     1             1             = 
   191 node[8]                     1             1             = 
   192 node[9]                     1             1             = 
   193 node[10]                    1             1             = 
   194 node[11]                    1             1             = 
   195 node[12]                    1             1             = 
   196 node[13]                    1             1             = 

   No. Column name       Activity     Lower bound   Upper bound
------ ------------    ------------- ------------- -------------
     1 x[1,2]       *              0             0             1 
     2 x[1,3]       *              0             0             1 
     3 x[1,4]       *              0             0             1 
     4 x[1,5]       *              1             0             1 
     5 x[1,6]       *              0             0             1 
     6 x[1,7]       *              0             0             1 
     7 x[1,8]       *              0             0             1 
     8 x[1,9]       *              0             0             1 
     9 x[1,10]      *              0             0             1 
    10 x[1,11]      *              0             0             1 
    11 x[1,12]      *              0             0             1 
    12 x[1,13]      *              0             0             1 
    13 x[2,1]       *              0             0             1 
    14 x[2,3]       *              0             0             1 
    15 x[2,4]       *              0             0             1 
    16 x[2,5]       *              0             0             1 
    17 x[2,6]       *              0             0             1 
    18 x[2,7]       *              0             0             1 
    19 x[2,8]       *              0             0             1 
    20 x[2,9]       *              1             0             1 
    21 x[2,10]      *              0             0             1 
    22 x[2,11]      *              0             0             1 
    23 x[2,12]      *              0             0             1 
    24 x[2,13]      *              0             0             1 
    25 x[3,1]       *              0             0             1 
    26 x[3,2]       *              0             0             1 
    27 x[3,4]       *              1             0             1 
    28 x[3,5]       *              0             0             1 
    29 x[3,6]       *              0             0             1 
    30 x[3,7]       *              0             0             1 
    31 x[3,8]       *              0             0             1 
    32 x[3,9]       *              0             0             1 
    33 x[3,10]      *              0             0             1 
    34 x[3,11]      *              0             0             1 
    35 x[3,12]      *              0             0             1 
    36 x[3,13]      *              0             0             1 
    37 x[4,1]       *              0             0             1 
    38 x[4,2]       *              0             0             1 
    39 x[4,3]       *              0             0             1 
    40 x[4,5]       *              0             0             1 
    41 x[4,6]       *              0             0             1 
    42 x[4,7]       *              1             0             1 
    43 x[4,8]       *              0             0             1 
    44 x[4,9]       *              0             0             1 
    45 x[4,10]      *              0             0             1 
    46 x[4,11]      *              0             0             1 
    47 x[4,12]      *              0             0             1 
    48 x[4,13]      *              0             0             1 
    49 x[5,1]       *              0             0             1 
    50 x[5,2]       *              0             0             1 
    51 x[5,3]       *              0             0             1 
    52 x[5,4]       *              0             0             1 
    53 x[5,6]       *              1             0             1 
    54 x[5,7]       *              0             0             1 
    55 x[5,8]       *              0             0             1 
    56 x[5,9]       *              0             0             1 
    57 x[5,10]      *              0             0             1 
    58 x[5,11]      *              0             0             1 
    59 x[5,12]      *              0             0             1 
    60 x[5,13]      *              0             0             1 
    61 x[6,1]       *              0             0             1 
    62 x[6,2]       *              0             0             1 
    63 x[6,3]       *              0             0             1 
    64 x[6,4]       *              0             0             1 
    65 x[6,5]       *              0             0             1 
    66 x[6,7]       *              0             0             1 
    67 x[6,8]       *              0             0             1 
    68 x[6,9]       *              0             0             1 
    69 x[6,10]      *              0             0             1 
    70 x[6,11]      *              1             0             1 
    71 x[6,12]      *              0             0             1 
    72 x[6,13]      *              0             0             1 
    73 x[7,1]       *              0             0             1 
    74 x[7,2]       *              0             0             1 
    75 x[7,3]       *              0             0             1 
    76 x[7,4]       *              0             0             1 
    77 x[7,5]       *              0             0             1 
    78 x[7,6]       *              0             0             1 
    79 x[7,8]       *              0             0             1 
    80 x[7,9]       *              0             0             1 
    81 x[7,10]      *              1             0             1 
    82 x[7,11]      *              0             0             1 
    83 x[7,12]      *              0             0             1 
    84 x[7,13]      *              0             0             1 
    85 x[8,1]       *              0             0             1 
    86 x[8,2]       *              0             0             1 
    87 x[8,3]       *              1             0             1 
    88 x[8,4]       *              0             0             1 
    89 x[8,5]       *              0             0             1 
    90 x[8,6]       *              0             0             1 
    91 x[8,7]       *              0             0             1 
    92 x[8,9]       *              0             0             1 
    93 x[8,10]      *              0             0             1 
    94 x[8,11]      *              0             0             1 
    95 x[8,12]      *              0             0             1 
    96 x[8,13]      *              0             0             1 
    97 x[9,1]       *              0             0             1 
    98 x[9,2]       *              0             0             1 
    99 x[9,3]       *              0             0             1 
   100 x[9,4]       *              0             0             1 
   101 x[9,5]       *              0             0             1 
   102 x[9,6]       *              0             0             1 
   103 x[9,7]       *              0             0             1 
   104 x[9,8]       *              1             0             1 
   105 x[9,10]      *              0             0             1 
   106 x[9,11]      *              0             0             1 
   107 x[9,12]      *              0             0             1 
   108 x[9,13]      *              0             0             1 
   109 x[10,1]      *              0             0             1 
   110 x[10,2]      *              0             0             1 
   111 x[10,3]      *              0             0             1 
   112 x[10,4]      *              0             0             1 
   113 x[10,5]      *              0             0             1 
   114 x[10,6]      *              0             0             1 
   115 x[10,7]      *              0             0             1 
   116 x[10,8]      *              0             0             1 
   117 x[10,9]      *              0             0             1 
   118 x[10,11]     *              0             0             1 
   119 x[10,12]     *              0             0             1 
   120 x[10,13]     *              1             0             1 
   121 x[11,1]      *              0             0             1 
   122 x[11,2]      *              0             0             1 
   123 x[11,3]      *              0             0             1 
   124 x[11,4]      *              0             0             1 
   125 x[11,5]      *              0             0             1 
   126 x[11,6]      *              0             0             1 
   127 x[11,7]      *              0             0             1 
   128 x[11,8]      *              0             0             1 
   129 x[11,9]      *              0             0             1 
   130 x[11,10]     *              0             0             1 
   131 x[11,12]     *              1             0             1 
   132 x[11,13]     *              0             0             1 
   133 x[12,1]      *              0             0             1 
   134 x[12,2]      *              1             0             1 
   135 x[12,3]      *              0             0             1 
   136 x[12,4]      *              0             0             1 
   137 x[12,5]      *              0             0             1 
   138 x[12,6]      *              0             0             1 
   139 x[12,7]      *              0             0             1 
   140 x[12,8]      *              0             0             1 
   141 x[12,9]      *              0             0             1 
   142 x[12,10]     *              0             0             1 
   143 x[12,11]     *              0             0             1 
   144 x[12,13]     *              0             0             1 
   145 x[13,1]      *              1             0             1 
   146 x[13,2]      *              0             0             1 
   147 x[13,3]      *              0             0             1 
   148 x[13,4]      *              0             0             1 
   149 x[13,5]      *              0             0             1 
   150 x[13,6]      *              0             0             1 
   151 x[13,7]      *              0             0             1 
   152 x[13,8]      *              0             0             1 
   153 x[13,9]      *              0             0             1 
   154 x[13,10]     *              0             0             1 
   155 x[13,11]     *              0             0             1 
   156 x[13,12]     *              0             0             1 
   157 y[1,2]                      0             0               
   158 y[1,3]                      0             0               
   159 y[1,4]                      0             0               
   160 y[1,5]                     12             0               
   161 y[1,6]                      0             0               
   162 y[1,7]                      0             0               
   163 y[1,8]                      0             0               
   164 y[1,9]                      0             0               
   165 y[1,10]                     0             0               
   166 y[1,11]                     0             0               
   167 y[1,12]                     0             0               
   168 y[1,13]                     0             0               
   169 y[2,1]                      0             0               
   170 y[2,3]                      0             0               
   171 y[2,4]                      0             0               
   172 y[2,5]                      0             0               
   173 y[2,6]                      0             0               
   174 y[2,7]                      0             0               
   175 y[2,8]                      0             0               
   176 y[2,9]                      7             0               
   177 y[2,10]                     0             0               
   178 y[2,11]                     0             0               
   179 y[2,12]                     0             0               
   180 y[2,13]                     0             0               
   181 y[3,1]                      0             0               
   182 y[3,2]                      0             0               
   183 y[3,4]                      4             0               
   184 y[3,5]                      0             0               
   185 y[3,6]                      0             0               
   186 y[3,7]                      0             0               
   187 y[3,8]                      0             0               
   188 y[3,9]                      0             0               
   189 y[3,10]                     0             0               
   190 y[3,11]                     0             0               
   191 y[3,12]                     0             0               
   192 y[3,13]                     0             0               
   193 y[4,1]                      0             0               
   194 y[4,2]                      0             0               
   195 y[4,3]                      0             0               
   196 y[4,5]                      0             0               
   197 y[4,6]                      0             0               
   198 y[4,7]                      3             0               
   199 y[4,8]                      0             0               
   200 y[4,9]                      0             0               
   201 y[4,10]                     0             0               
   202 y[4,11]                     0             0               
   203 y[4,12]                     0             0               
   204 y[4,13]                     0             0               
   205 y[5,1]                      0             0               
   206 y[5,2]                      0             0               
   207 y[5,3]                      0             0               
   208 y[5,4]                      0             0               
   209 y[5,6]                     11             0               
   210 y[5,7]                      0             0               
   211 y[5,8]                      0             0               
   212 y[5,9]                      0             0               
   213 y[5,10]                     0             0               
   214 y[5,11]                     0             0               
   215 y[5,12]                     0             0               
   216 y[5,13]                     0             0               
   217 y[6,1]                      0             0               
   218 y[6,2]                      0             0               
   219 y[6,3]                      0             0               
   220 y[6,4]                      0             0               
   221 y[6,5]                      0             0               
   222 y[6,7]                      0             0               
   223 y[6,8]                      0             0               
   224 y[6,9]                      0             0               
   225 y[6,10]                     0             0               
   226 y[6,11]                    10             0               
   227 y[6,12]                     0             0               
   228 y[6,13]                     0             0               
   229 y[7,1]                      0             0               
   230 y[7,2]                      0             0               
   231 y[7,3]                      0             0               
   232 y[7,4]                      0             0               
   233 y[7,5]                      0             0               
   234 y[7,6]                      0             0               
   235 y[7,8]                      0             0               
   236 y[7,9]                      0             0               
   237 y[7,10]                     2             0               
   238 y[7,11]                     0             0               
   239 y[7,12]                     0             0               
   240 y[7,13]                     0             0               
   241 y[8,1]                      0             0               
   242 y[8,2]                      0             0               
   243 y[8,3]                      5             0               
   244 y[8,4]                      0             0               
   245 y[8,5]                      0             0               
   246 y[8,6]                      0             0               
   247 y[8,7]                      0             0               
   248 y[8,9]                      0             0               
   249 y[8,10]                     0             0               
   250 y[8,11]                     0             0               
   251 y[8,12]                     0             0               
   252 y[8,13]                     0             0               
   253 y[9,1]                      0             0               
   254 y[9,2]                      0             0               
   255 y[9,3]                      0             0               
   256 y[9,4]                      0             0               
   257 y[9,5]                      0             0               
   258 y[9,6]                      0             0               
   259 y[9,7]                      0             0               
   260 y[9,8]                      6             0               
   261 y[9,10]                     0             0               
   262 y[9,11]                     0             0               
   263 y[9,12]                     0             0               
   264 y[9,13]                     0             0               
   265 y[10,1]                     0             0               
   266 y[10,2]                     0             0               
   267 y[10,3]                     0             0               
   268 y[10,4]                     0             0               
   269 y[10,5]                     0             0               
   270 y[10,6]                     0             0               
   271 y[10,7]                     0             0               
   272 y[10,8]                     0             0               
   273 y[10,9]                     0             0               
   274 y[10,11]                    0             0               
   275 y[10,12]                    0             0               
   276 y[10,13]                    1             0               
   277 y[11,1]                     0             0               
   278 y[11,2]                     0             0               
   279 y[11,3]                     0             0               
   280 y[11,4]                     0             0               
   281 y[11,5]                     0             0               
   282 y[11,6]                     0             0               
   283 y[11,7]                     0             0               
   284 y[11,8]                     0             0               
   285 y[11,9]                     0             0               
   286 y[11,10]                    0             0               
   287 y[11,12]                    9             0               
   288 y[11,13]                    0             0               
   289 y[12,1]                     0             0               
   290 y[12,2]                     8             0               
   291 y[12,3]                     0             0               
   292 y[12,4]                     0             0               
   293 y[12,5]                     0             0               
   294 y[12,6]                     0             0               
   295 y[12,7]                     0             0               
   296 y[12,8]                     0             0               
   297 y[12,9]                     0             0               
   298 y[12,10]                    0             0               
   299 y[12,11]                    0             0               
   300 y[12,13]                    0             0               
   301 y[13,1]                     0             0               
   302 y[13,2]                     0             0               
   303 y[13,3]                     0             0               
   304 y[13,4]                     0             0               
   305 y[13,5]                     0             0               
   306 y[13,6]                     0             0               
   307 y[13,7]                     0             0               
   308 y[13,8]                     0             0               
   309 y[13,9]                     0             0               
   310 y[13,10]                    0             0               
   311 y[13,11]                    0             0               
   312 y[13,12]                    0             0               

Integer feasibility conditions:

KKT.PE: max.abs.err = 8.88e-16 on row 186
        max.rel.err = 8.07e-17 on row 186
        High quality

KKT.PB: max.abs.err = 5.33e-15 on row 99
        max.rel.err = 5.33e-15 on row 99
        High quality

End of output
